(set-logic QF_NRA)
(declare-fun skoC () Real)
(declare-fun skoS () Real)
(declare-fun skoCB () Real)
(declare-fun skoSB () Real)
(declare-fun skoX () Real)
(assert (and (<= (+ (* 3400 skoC) (* 7383 skoS)) 760000) (and (= (+ (* skoSB skoSB) (* skoCB skoCB)) 1) (and (= (+ (* skoS skoS) (* skoC skoC)) 1) (and (<= (* 10000000 skoX) 1) (<= (* (- 1) skoX) 0))))))
(set-info :status sat)
(check-sat)
